n = 8
m = 25
c = 15

problem 1
---------
 1 1 0 0 1 1 1 0
 0 1 0 1 0 0 0 1
 0 0 0 1 1 1 0 1
 1 1 1 1 0 0 0 0
 0 0 1 1 1 0 0 0
 1 1 0 1 0 1 0 1
 1 1 0 1 0 0 0 1
 0 1 0 0 0 0 0 0
 0 0 1 1 1 1 0 1
 0 0 1 0 0 0 1 1
 1 1 0 0 1 0 0 1
 0 1 1 1 1 1 1 0
 1 1 1 1 1 0 1 0
 1 0 0 1 0 0 0 0
 0 0 0 1 1 0 0 1
 1 1 0 0 0 1 1 0
 0 1 1 0 0 0 1 0
 1 1 1 0 1 1 0 1
 0 0 0 0 1 0 0 0
 1 0 0 0 1 1 1 1
 0 0 0 0 1 0 1 0
 1 1 0 0 1 0 0 1
 1 1 1 1 1 0 1 1
 0 1 1 1 1 1 0 1
 0 0 0 1 0 1 1 1

problem 2
---------
 1 0 0 0 1 0 0 1
 0 0 0 0 1 1 0 0
 1 1 0 0 0 0 1 1
 1 1 1 1 0 0 0 0
 0 1 0 1 1 1 1 1
 1 0 0 0 1 0 1 1
 1 0 0 0 1 1 1 1
 0 1 0 1 0 0 0 1
 1 0 0 0 0 1 1 0
 1 0 0 1 0 1 0 0
 0 0 1 1 0 0 0 0
 1 1 1 1 0 0 1 1
 1 0 1 1 0 1 0 1
 0 0 1 0 1 1 0 0
 1 0 0 1 1 1 1 0
 0 0 0 0 1 1 1 1
 1 1 0 1 0 1 1 1
 1 1 1 0 1 0 0 1
 0 1 0 1 0 1 0 0
 1 0 1 1 0 1 0 0
 1 1 0 0 1 0 0 1
 0 1 1 0 1 0 0 0
 0 1 1 1 0 0 0 1
 0 0 0 1 1 1 1 1
 1 0 1 0 0 0 0 1

problem 3
---------
 1 0 0 0 0 0 1 0
 0 1 0 0 0 1 0 0
 1 1 1 1 0 1 1 1
 1 0 0 0 0 0 1 1
 1 1 1 1 1 1 1 1
 1 0 0 0 0 0 0 1
 1 0 0 1 1 1 1 1
 1 0 1 0 0 1 0 0
 0 1 0 0 1 0 1 1
 1 0 1 0 1 1 0 1
 0 1 0 0 1 0 0 0
 0 1 1 0 0 0 0 0
 0 1 1 1 0 0 1 0
 0 1 1 1 1 1 0 1
 1 1 0 0 0 1 0 1
 1 1 1 1 1 0 1 1
 1 0 0 0 1 0 0 0
 0 1 1 1 1 1 0 1
 0 0 1 0 1 0 0 0
 0 0 1 0 1 0 0 1
 1 1 0 0 1 0 0 0
 0 1 1 1 1 0 1 1
 0 0 0 1 0 1 0 1
 1 1 1 0 0 0 1 1
 0 1 1 1 0 0 1 0

problem 4
---------
 0 1 0 1 1 1 0 1
 0 0 0 0 1 0 0 1
 1 1 0 0 0 0 0 1
 1 1 0 0 1 1 0 1
 0 1 1 1 1 0 1 1
 0 0 0 0 0 0 1 0
 1 1 0 0 0 1 1 0
 0 1 1 0 1 0 1 0
 1 0 1 0 0 0 1 0
 1 0 0 1 1 0 1 0
 0 0 0 1 0 1 1 0
 0 0 1 0 1 1 0 0
 0 0 0 0 0 1 0 1
 0 1 1 1 1 1 0 1
 0 1 0 0 1 1 1 0
 0 0 1 1 1 0 0 0
 1 0 0 1 1 1 1 1
 1 0 0 1 0 1 1 0
 1 1 1 0 0 0 1 1
 1 0 0 1 0 0 1 1
 0 0 1 0 1 1 0 1
 1 0 0 0 1 1 0 1
 0 0 1 1 1 0 1 0
 0 1 1 1 0 1 1 1
 0 1 1 1 1 1 1 1

problem 5
---------
 0 1 1 1 0 1 0 1
 1 1 1 1 0 1 0 1
 1 1 0 0 0 1 0 1
 0 0 0 0 1 1 0 1
 1 1 1 0 1 0 0 1
 1 0 1 1 0 0 0 0
 0 1 0 0 1 0 1 0
 1 1 1 1 0 0 1 1
 0 1 0 0 0 1 0 1
 1 1 1 0 0 0 1 1
 1 0 0 1 1 1 1 1
 1 1 0 1 1 0 0 0
 1 0 0 1 1 0 0 0
 1 0 1 1 0 1 1 0
 0 1 1 0 0 0 0 1
 1 1 1 0 1 1 1 0
 0 1 1 1 1 1 0 0
 0 0 1 0 0 0 1 1
 0 0 0 1 0 0 0 0
 1 0 0 1 1 1 1 0
 1 0 1 1 0 0 0 0
 0 1 0 0 0 0 1 0
 0 1 1 0 1 0 0 1
 0 0 1 0 0 0 1 0
 0 0 0 1 0 1 0 1

problem 6
---------
 0 1 0 0 1 1 1 1
 0 1 0 0 1 1 0 1
 1 1 0 0 0 0 0 1
 0 0 1 0 1 1 0 0
 0 0 1 1 0 0 1 0
 1 0 0 1 0 1 1 0
 0 1 1 0 1 0 1 0
 0 1 0 0 1 0 0 1
 1 1 1 1 0 1 1 1
 0 1 1 1 1 1 0 1
 1 0 1 1 1 1 0 0
 0 1 1 1 1 1 1 1
 0 0 1 1 0 0 0 0
 0 1 0 1 1 1 0 0
 1 0 0 0 1 0 1 0
 1 0 1 1 1 0 0 0
 0 0 0 1 1 0 1 1
 0 1 0 1 0 1 1 1
 1 1 0 0 1 1 0 1
 0 1 0 1 0 1 1 0
 0 0 0 1 0 0 1 0
 1 0 0 1 1 1 0 1
 1 1 1 0 0 0 0 1
 0 0 0 0 0 1 0 0
 1 1 0 1 0 1 0 0

problem 7
---------
 0 0 1 1 0 0 1 0
 0 0 0 0 0 0 0 1
 0 1 0 1 0 1 1 1
 0 1 1 0 0 1 0 0
 1 0 0 1 1 0 0 1
 1 0 0 0 1 1 0 0
 1 1 1 0 0 0 1 0
 0 0 1 1 1 0 0 1
 1 1 1 0 1 1 1 0
 0 0 1 1 0 1 1 0
 0 1 1 0 0 0 1 0
 0 0 1 1 0 1 0 0
 0 1 0 0 1 1 1 1
 1 0 0 1 0 0 1 0
 1 0 1 1 1 1 0 0
 1 1 1 1 0 0 1 1
 1 1 1 1 1 1 1 0
 1 0 1 0 0 1 1 1
 1 0 0 1 1 0 0 1
 1 1 0 1 1 1 1 0
 1 0 1 0 0 1 1 1
 0 1 1 0 0 0 0 0
 1 1 0 1 1 1 1 1
 1 0 0 0 1 0 0 0
 0 0 0 1 0 1 1 0

problem 8
---------
 0 1 0 0 1 1 0 0
 1 1 1 1 0 0 1 0
 1 0 1 0 0 1 1 0
 0 1 1 1 0 1 0 0
 0 1 0 0 1 1 0 0
 0 1 0 1 0 1 1 0
 0 0 0 1 0 0 1 1
 0 0 1 1 0 1 0 0
 0 1 0 1 0 0 0 0
 1 0 1 1 1 0 1 1
 0 1 1 1 1 0 0 1
 0 0 1 0 0 0 1 0
 0 1 0 0 1 0 1 1
 1 0 1 1 0 0 1 1
 0 0 0 1 1 1 1 0
 1 1 0 1 1 0 1 0
 1 1 1 0 1 1 0 1
 1 0 1 0 0 0 0 1
 1 0 0 0 0 1 0 0
 1 0 1 1 1 1 0 0
 0 0 1 0 1 0 0 1
 1 0 0 1 0 0 0 1
 1 1 1 0 1 0 1 0
 0 1 0 1 1 0 1 1
 0 1 0 1 1 0 1 0

problem 9
---------
 1 1 1 1 0 1 0 0
 1 0 1 0 1 1 1 1
 0 1 0 1 1 1 1 1
 0 0 1 1 0 0 0 0
 1 1 1 1 0 1 0 0
 0 1 0 1 0 1 0 0
 1 0 0 0 1 1 1 1
 1 0 0 0 0 1 1 0
 0 1 1 0 0 0 1 1
 1 0 0 1 0 1 1 1
 0 0 1 1 1 0 0 1
 1 1 0 0 0 0 1 0
 0 1 0 0 1 0 0 0
 0 0 1 1 1 0 0 1
 0 0 1 1 1 0 0 1
 1 0 1 1 0 0 1 1
 0 1 0 0 1 0 1 1
 0 1 0 1 1 1 0 0
 0 0 0 0 1 1 1 1
 1 0 1 0 0 1 1 1
 0 1 0 0 1 1 1 0
 0 0 0 1 1 0 1 1
 1 0 1 1 0 0 0 0
 1 1 0 0 0 0 0 1
 1 0 1 1 1 0 0 0

problem 10
---------
 1 0 0 1 1 0 0 0
 1 1 1 0 0 0 1 0
 0 0 0 1 1 0 0 0
 0 1 1 0 0 0 1 1
 1 1 0 1 1 0 1 1
 0 1 0 0 0 1 0 1
 1 0 0 0 1 1 0 1
 0 1 1 0 1 0 1 0
 1 0 1 1 0 1 0 0
 1 1 0 1 1 1 0 1
 1 0 0 0 0 0 0 1
 0 0 0 0 1 1 1 0
 1 0 1 0 0 0 1 0
 1 0 0 1 1 0 0 1
 0 0 1 1 1 0 1 0
 0 1 1 1 1 0 0 0
 1 0 1 1 1 0 1 0
 0 0 0 0 0 1 1 1
 0 1 0 0 0 0 1 0
 1 0 0 1 1 0 0 0
 0 0 0 1 0 1 1 1
 1 0 0 0 0 1 0 1
 1 1 1 1 1 0 1 0
 1 0 1 0 1 1 1 1
 1 1 0 1 1 1 1 1
